problem_generation/data/GISP/train/er_n=66_m=1280_p=0.60_SET2_setparam=100.00_alpha=0.50_0.lp
maximize
OBJ:100x0 + 100x1 + 100x2 + 100x3 + 100x4 + 100x5 + 100x6 + 100x7 + 100x8 + 100x9 + 100x10 + 100x11 + 100x12 + 100x13 + 100x14 + 100x15 + 100x16 + 100x17 + 100x18 + 100x19 + 100x20 + 100x21 + 100x22 + 100x23 + 100x24 + 100x25 + 100x26 + 100x27 + 100x28 + 100x29 + 100x30 + 100x31 + 100x32 + 100x33 + 100x34 + 100x35 + 100x36 + 100x37 + 100x38 + 100x39 + 100x40 + 100x41 + 100x42 + 100x43 + 100x44 + 100x45 + 100x46 + 100x47 + 100x48 + 100x49 + 100x50 + 100x51 + 100x52 + 100x53 + 100x54 + 100x55 + 100x56 + 100x57 + 100x58 + 100x59 + 100x60 + 100x61 + 100x62 + 100x63 + 100x64 + 100x65 - y47_53 - y15_30 - y59_64 - y17_58 - y18_44 - y0_5 - y29_41 - y8_18 - y40_41 - y48_54 - y29_50 - y29_59 - y40_59 - y10_27 - y3_15 - y14_24 - y43_60 - y13_65 - y24_65 - y14_42 - y15_16 - y15_25 - y18_21 - y47_57 - y17_53 - y5_60 - y28_62 - y6_34 - y29_45 - y21_41 - y21_50 - y21_59 - y25_29 - y2_36 - y25_38 - y44_51 - y2_45 - y51_59 - y43_55 - y14_28 - y43_64 - y3_37 - y55_56 - y28_48 - y59_63 - y5_64 - y29_31 - y29_49 - y21_45 - y40_58 - y10_26 - y39_62 - y62_64 - y33_37 - y25_33 - y14_23 - y24_55 - y35_55 - y1_62 - y13_64 - y24_64 - y16_60 - y28_34 - y5_41 - y6_15 - y9_48 - y6_24 - y9_57 - y21_22 - y21_31 - y42_63 - y21_40 - y6_51 - y20_53 - y54_55 - y10_30 - y20_62 - y31_62 - y10_39 - y32_36 - y13_32 - y24_32 - y32_45 - y43_45 - y32_54 - y32_63 - y13_59 - y35_59 - y16_64 - y5_27 - y9_25 - y9_43 - y9_52 - y5_63 - y29_30 - y9_61 - y21_26 - y27_60 - y50_62 - y61_62 - y21_35 - y6_46 - y19_65 - y39_43 - y2_3 - y39_52 - y54_59 - y23_53 - y4_49 - y23_62 - y13_27 - y1_34 - y32_49 - y24_45 - y9_11 - y5_22 - y17_24 - y46_60 - y28_33 - y9_29 - y49_65 - y5_40 - y17_42 - y58_61 - y0_65 - y39_56 - y23_48 - y20_61 - y31_61 - y54_63 - y13_22 - y32_35 - y4_62 - y43_44 - y13_40 - y24_40 - y35_40 - y16_36 - y5_8 - y16_54 - y17_19 - y1_65 - y5_26 - y9_24 - y9_33 - y27_50 - y58_65 - y8_46 - y19_46 - y27_59 - y30_55 - y11_51 - y8_64 - y30_64 - y23_25 - y31_38 - y39_51 - y23_34 - y20_47 - y12_43 - y20_56 - y4_39 - y4_48 - y23_61 - y16_31 - y16_40 - y38_46 - y46_59 - y9_19 - y15_53 - y5_30 - y49_55 - y15_62 - y26_62 - y6_13 - y19_41 - y30_41 - y27_54 - y8_50 - y30_50 - y11_46 - y42_61 - y0_55 - y12_20 - y23_29 - y4_25 - y20_51 - y4_34 - y23_47 - y23_56 - y34_53 - y45_53 - y4_61 - y16_26 - y16_35 - y46_54 - y9_14 - y15_48 - y57_63 - y15_57 - y7_53 - y50_51 - y11_32 - y0_41 - y11_41 - y8_54 - y19_54 - y30_54 - y11_50 - y12_15 - y23_24 - y41_60 - y20_37 - y52_60 - y12_42 - y23_42 - y4_38 - y34_39 - y13_16 - y45_48 - y16_21 - y22_55 - y56_57 - y3_51 - y15_34 - y26_34 - y5_11 - y46_49 - y15_43 - y57_58 - y7_39 - y18_39 - y15_52 - y7_48 - y26_61 - y7_57 - y19_31 - y30_31 - y8_49 - y19_49 - y30_49 - y20_23 - y4_6 - y12_19 - y4_15 - y33_51 - y4_24 - y44_60 - y12_37 - y23_37 - y53_56 - y22_59 - y56_61 - y26_29 - y5_6 - y18_25 - y38_40 - y15_47 - y26_47 - y0_4 - y18_52 - y27_30 - y7_61 - y11_22 - y0_31 - y19_44 - y21_63 - y11_49 - y44_46 - y41_59 - y52_59 - y4_19 - y44_55 - y4_28 - y2_58 - y22_36 - y3_32 - y3_41 - y14_50 - y3_59 - y37_61 - y18_20 - y15_42 - y15_51 - y0_8 - y7_56 - y48_57 - y40_53 - y8_30 - y29_62 - y40_62 - y63_64 - y52_54 - y41_63 - y52_63 - y22_31 - y2_62 - y22_40 - y37_38 - y45_51 - y37_47 - y3_54 - y15_19 - y14_63 - y55_64 - y7_24 - y7_33 - y7_42 - y29_39 - y8_16 - y0_12 - y40_48 - y48_61 - y21_44 - y21_62 - y41_58 - y2_48 - y33_63 - y34_37 - y3_40 - y14_40 - y3_49 - y14_49 - y15_23 - y55_59 - y7_19 - y18_19 - y47_55 - y17_60 - y29_34 - y9_65 - y6_41 - y29_43 - y40_43 - y48_56 - y6_50 - y40_52 - y10_29 - y10_38 - y25_36 - y2_52 - y14_17 - y25_54 - y32_53 - y2_61 - y3_26 - y3_44 - y16_63 - y36_41 - y7_14 - y36_50 - y47_50 - y28_46 - y59_61 - y9_42 - y5_53 - y17_55 - y28_55 - y6_27 - y6_36 - y21_34 - y21_43 - y29_56 - y40_56 - y10_15 - y10_33 - y2_29 - y25_31 - y33_44 - y51_52 - y43_48 - y3_21 - y14_21 - y35_53 - y14_30 - y24_62 - y16_58 - y55_58 - y9_37 - y28_59 - y9_64 - y61_65 - y6_49 - y29_51 - y40_51 - y2_6 - y12_65 - y23_65 - y2_42 - y3_16 - y32_52 - y43_52 - y35_48 - y51_65 - y13_57 - y35_57 - y16_53 - y17_27 - y36_40 - y9_23 - y17_36 - y28_36 - y9_32 - y17_45 - y6_8 - y36_58 - y28_54 - y28_63 - y6_35 - y29_37 - y21_42 - y10_14 - y39_50 - y2_10 - y10_32 - y23_51 - y32_38 - y24_34 - y3_11 - y4_65 - y13_43 - y24_43 - y32_56 - y24_52 - y32_65 - y16_48 - y1_59 - y5_38 - y5_47 - y58_59 - y9_54 - y6_30 - y21_28 - y27_62 - y8_58 - y31_41 - y10_18 - y20_50 - y31_50 - y62_65 - y2_23 - y4_42 - y20_59 - y31_59 - y13_20 - y32_33 - y24_29 - y1_36 - y16_34 - y13_47 - y16_52 - y5_15 - y5_24 - y46_62 - y36_39 - y9_22 - y38_58 - y49_58 - y28_44 - y42_46 - y19_53 - y0_49 - y8_62 - y19_62 - y30_62 - y0_58 - y20_36 - y31_36 - y39_49 - y12_32 - y2_9 - y31_54 - y12_50 - y31_63 - y4_46 - y53_60 - y32_37 - y13_33 - y24_33 - y4_64 - y16_29 - y34_65 - y13_42 - y24_42 - y45_65 - y24_51 - y35_51 - y16_47 - y5_19 - y5_28 - y28_30 - y26_60 - y9_35 - y7_65 - y18_65 - y27_43 - y30_39 - y50_54 - y19_48 - y27_61 - y8_57 - y30_57 - y11_53 - y12_18 - y23_27 - y4_32 - y20_58 - y31_58 - y23_54 - y23_63 - y1_26 - y34_60 - y16_33 - y1_44 - y37_65 - y46_52 - y9_12 - y46_61 - y15_55 - y15_64 - y7_60 - y8_25 - y30_34 - y11_39 - y0_48 - y8_61 - y12_22 - y4_18 - y23_31 - y4_27 - y12_40 - y1_3 - y4_36 - y1_12 - y45_46 - y13_23 - y16_19 - y22_62 - y34_64 - y1_39 - y26_41 - y46_56 - y15_50 - y26_50 - y7_46 - y7_55 - y8_29 - y0_25 - y8_38 - y19_38 - y30_38 - y11_34 - y19_47 - y42_49 - y11_43 - y20_21 - y41_53 - y11_61 - y41_62 - y12_35 - y4_31 - y1_7 - y4_40 - y34_50 - y37_46 - y16_23 - y34_59 - y14_62 - y15_36 - y18_50 - y8_15 - y8_24 - y48_60 - y19_33 - y11_29 - y8_42 - y30_42 - y19_51 - y0_47 - y11_47 - y41_48 - y20_25 - y12_21 - y44_53 - y12_30 - y23_30 - y10_60 - y25_58 - y1_11 - y2_65 - y22_43 - y1_20 - y3_39 - y37_41 - y45_54 - y3_48 - y45_63 - y56_63 - y3_57 - y14_57 - y15_22 - y37_59 - y59_65 - y18_36 - y8_10 - y26_58 - y18_54 - y11_15 - y19_28 - y48_64 - y29_60 - y40_60 - y60_65 - y41_61 - y52_61 - y44_57 - y2_51 - y1_6 - y22_38 - y14_34 - y22_47 - y14_43 - y14_52 - y37_54 - y22_65 - y55_62 - y59_60 - y7_31 - y18_40 - y8_14 - y48_50 - y0_10 - y48_59 - y29_55 - y6_62 - y11_28 - y40_64 - y10_41 - y25_39 - y44_52 - y52_65 - y25_48 - y3_20 - y3_29 - y22_42 - y22_51
 Subject to
C1: x0+x3 <=1 
C2: x0+x4-y0_4 <=1 
C3: x0+x5-y0_5 <=1 
C4: x0+x6 <=1 
C5: x0+x8-y0_8 <=1 
C6: x0+x9 <=1 
C7: x0+x10-y0_10 <=1 
C8: x0+x12-y0_12 <=1 
C9: x0+x13 <=1 
C10: x0+x16 <=1 
C11: x0+x21 <=1 
C12: x0+x25-y0_25 <=1 
C13: x0+x26 <=1 
C14: x0+x27 <=1 
C15: x0+x31-y0_31 <=1 
C16: x0+x33 <=1 
C17: x0+x35 <=1 
C18: x0+x36 <=1 
C19: x0+x38 <=1 
C20: x0+x41-y0_41 <=1 
C21: x0+x42 <=1 
C22: x0+x44 <=1 
C23: x0+x45 <=1 
C24: x0+x47-y0_47 <=1 
C25: x0+x48-y0_48 <=1 
C26: x0+x49-y0_49 <=1 
C27: x0+x52 <=1 
C28: x0+x53 <=1 
C29: x0+x54 <=1 
C30: x0+x55-y0_55 <=1 
C31: x0+x57 <=1 
C32: x0+x58-y0_58 <=1 
C33: x0+x60 <=1 
C34: x0+x62 <=1 
C35: x0+x65-y0_65 <=1 
C36: x1+x2 <=1 
C37: x1+x3-y1_3 <=1 
C38: x1+x4 <=1 
C39: x1+x5 <=1 
C40: x1+x6-y1_6 <=1 
C41: x1+x7-y1_7 <=1 
C42: x1+x8 <=1 
C43: x1+x11-y1_11 <=1 
C44: x1+x12-y1_12 <=1 
C45: x1+x19 <=1 
C46: x1+x20-y1_20 <=1 
C47: x1+x22 <=1 
C48: x1+x26-y1_26 <=1 
C49: x1+x28 <=1 
C50: x1+x29 <=1 
C51: x1+x34-y1_34 <=1 
C52: x1+x36-y1_36 <=1 
C53: x1+x39-y1_39 <=1 
C54: x1+x41 <=1 
C55: x1+x42 <=1 
C56: x1+x44-y1_44 <=1 
C57: x1+x46 <=1 
C58: x1+x47 <=1 
C59: x1+x49 <=1 
C60: x1+x50 <=1 
C61: x1+x52 <=1 
C62: x1+x54 <=1 
C63: x1+x57 <=1 
C64: x1+x58 <=1 
C65: x1+x59-y1_59 <=1 
C66: x1+x61 <=1 
C67: x1+x62-y1_62 <=1 
C68: x1+x64 <=1 
C69: x1+x65-y1_65 <=1 
C70: x2+x3-y2_3 <=1 
C71: x2+x6-y2_6 <=1 
C72: x2+x7 <=1 
C73: x2+x8 <=1 
C74: x2+x9-y2_9 <=1 
C75: x2+x10-y2_10 <=1 
C76: x2+x12 <=1 
C77: x2+x13 <=1 
C78: x2+x14 <=1 
C79: x2+x15 <=1 
C80: x2+x16 <=1 
C81: x2+x18 <=1 
C82: x2+x19 <=1 
C83: x2+x23-y2_23 <=1 
C84: x2+x26 <=1 
C85: x2+x29-y2_29 <=1 
C86: x2+x30 <=1 
C87: x2+x31 <=1 
C88: x2+x32 <=1 
C89: x2+x33 <=1 
C90: x2+x34 <=1 
C91: x2+x35 <=1 
C92: x2+x36-y2_36 <=1 
C93: x2+x37 <=1 
C94: x2+x38 <=1 
C95: x2+x39 <=1 
C96: x2+x41 <=1 
C97: x2+x42-y2_42 <=1 
C98: x2+x43 <=1 
C99: x2+x45-y2_45 <=1 
C100: x2+x46 <=1 
C101: x2+x47 <=1 
C102: x2+x48-y2_48 <=1 
C103: x2+x50 <=1 
C104: x2+x51-y2_51 <=1 
C105: x2+x52-y2_52 <=1 
C106: x2+x57 <=1 
C107: x2+x58-y2_58 <=1 
C108: x2+x60 <=1 
C109: x2+x61-y2_61 <=1 
C110: x2+x62-y2_62 <=1 
C111: x2+x63 <=1 
C112: x2+x65-y2_65 <=1 
C113: x3+x5 <=1 
C114: x3+x6 <=1 
C115: x3+x7 <=1 
C116: x3+x9 <=1 
C117: x3+x11-y3_11 <=1 
C118: x3+x12 <=1 
C119: x3+x13 <=1 
C120: x3+x14 <=1 
C121: x3+x15-y3_15 <=1 
C122: x3+x16-y3_16 <=1 
C123: x3+x17 <=1 
C124: x3+x20-y3_20 <=1 
C125: x3+x21-y3_21 <=1 
C126: x3+x22 <=1 
C127: x3+x26-y3_26 <=1 
C128: x3+x29-y3_29 <=1 
C129: x3+x32-y3_32 <=1 
C130: x3+x34 <=1 
C131: x3+x35 <=1 
C132: x3+x37-y3_37 <=1 
C133: x3+x39-y3_39 <=1 
C134: x3+x40-y3_40 <=1 
C135: x3+x41-y3_41 <=1 
C136: x3+x44-y3_44 <=1 
C137: x3+x46 <=1 
C138: x3+x48-y3_48 <=1 
C139: x3+x49-y3_49 <=1 
C140: x3+x50 <=1 
C141: x3+x51-y3_51 <=1 
C142: x3+x54-y3_54 <=1 
C143: x3+x55 <=1 
C144: x3+x57-y3_57 <=1 
C145: x3+x59-y3_59 <=1 
C146: x3+x60 <=1 
C147: x3+x61 <=1 
C148: x3+x63 <=1 
C149: x4+x6-y4_6 <=1 
C150: x4+x13 <=1 
C151: x4+x14 <=1 
C152: x4+x15-y4_15 <=1 
C153: x4+x16 <=1 
C154: x4+x17 <=1 
C155: x4+x18-y4_18 <=1 
C156: x4+x19-y4_19 <=1 
C157: x4+x22 <=1 
C158: x4+x24-y4_24 <=1 
C159: x4+x25-y4_25 <=1 
C160: x4+x27-y4_27 <=1 
C161: x4+x28-y4_28 <=1 
C162: x4+x29 <=1 
C163: x4+x30 <=1 
C164: x4+x31-y4_31 <=1 
C165: x4+x32-y4_32 <=1 
C166: x4+x33 <=1 
C167: x4+x34-y4_34 <=1 
C168: x4+x35 <=1 
C169: x4+x36-y4_36 <=1 
C170: x4+x37 <=1 
C171: x4+x38-y4_38 <=1 
C172: x4+x39-y4_39 <=1 
C173: x4+x40-y4_40 <=1 
C174: x4+x42-y4_42 <=1 
C175: x4+x45 <=1 
C176: x4+x46-y4_46 <=1 
C177: x4+x48-y4_48 <=1 
C178: x4+x49-y4_49 <=1 
C179: x4+x54 <=1 
C180: x4+x57 <=1 
C181: x4+x58 <=1 
C182: x4+x60 <=1 
C183: x4+x61-y4_61 <=1 
C184: x4+x62-y4_62 <=1 
C185: x4+x63 <=1 
C186: x4+x64-y4_64 <=1 
C187: x4+x65-y4_65 <=1 
C188: x5+x6-y5_6 <=1 
C189: x5+x8-y5_8 <=1 
C190: x5+x9 <=1 
C191: x5+x11-y5_11 <=1 
C192: x5+x13 <=1 
C193: x5+x14 <=1 
C194: x5+x15-y5_15 <=1 
C195: x5+x19-y5_19 <=1 
C196: x5+x21 <=1 
C197: x5+x22-y5_22 <=1 
C198: x5+x23 <=1 
C199: x5+x24-y5_24 <=1 
C200: x5+x26-y5_26 <=1 
C201: x5+x27-y5_27 <=1 
C202: x5+x28-y5_28 <=1 
C203: x5+x29 <=1 
C204: x5+x30-y5_30 <=1 
C205: x5+x31 <=1 
C206: x5+x34 <=1 
C207: x5+x35 <=1 
C208: x5+x38-y5_38 <=1 
C209: x5+x40-y5_40 <=1 
C210: x5+x41-y5_41 <=1 
C211: x5+x42 <=1 
C212: x5+x44 <=1 
C213: x5+x46 <=1 
C214: x5+x47-y5_47 <=1 
C215: x5+x51 <=1 
C216: x5+x52 <=1 
C217: x5+x53-y5_53 <=1 
C218: x5+x56 <=1 
C219: x5+x59 <=1 
C220: x5+x60-y5_60 <=1 
C221: x5+x62 <=1 
C222: x5+x63-y5_63 <=1 
C223: x5+x64-y5_64 <=1 
C224: x5+x65 <=1 
C225: x6+x8-y6_8 <=1 
C226: x6+x9 <=1 
C227: x6+x10 <=1 
C228: x6+x13-y6_13 <=1 
C229: x6+x15-y6_15 <=1 
C230: x6+x16 <=1 
C231: x6+x23 <=1 
C232: x6+x24-y6_24 <=1 
C233: x6+x25 <=1 
C234: x6+x27-y6_27 <=1 
C235: x6+x29 <=1 
C236: x6+x30-y6_30 <=1 
C237: x6+x34-y6_34 <=1 
C238: x6+x35-y6_35 <=1 
C239: x6+x36-y6_36 <=1 
C240: x6+x37 <=1 
C241: x6+x38 <=1 
C242: x6+x41-y6_41 <=1 
C243: x6+x42 <=1 
C244: x6+x44 <=1 
C245: x6+x46-y6_46 <=1 
C246: x6+x47 <=1 
C247: x6+x49-y6_49 <=1 
C248: x6+x50-y6_50 <=1 
C249: x6+x51-y6_51 <=1 
C250: x6+x52 <=1 
C251: x6+x56 <=1 
C252: x6+x58 <=1 
C253: x6+x60 <=1 
C254: x6+x61 <=1 
C255: x6+x62-y6_62 <=1 
C256: x6+x63 <=1 
C257: x6+x64 <=1 
C258: x7+x9 <=1 
C259: x7+x10 <=1 
C260: x7+x11 <=1 
C261: x7+x12 <=1 
C262: x7+x14-y7_14 <=1 
C263: x7+x17 <=1 
C264: x7+x19-y7_19 <=1 
C265: x7+x20 <=1 
C266: x7+x24-y7_24 <=1 
C267: x7+x31-y7_31 <=1 
C268: x7+x33-y7_33 <=1 
C269: x7+x35 <=1 
C270: x7+x37 <=1 
C271: x7+x39-y7_39 <=1 
C272: x7+x40 <=1 
C273: x7+x42-y7_42 <=1 
C274: x7+x46-y7_46 <=1 
C275: x7+x47 <=1 
C276: x7+x48-y7_48 <=1 
C277: x7+x53-y7_53 <=1 
C278: x7+x54 <=1 
C279: x7+x55-y7_55 <=1 
C280: x7+x56-y7_56 <=1 
C281: x7+x57-y7_57 <=1 
C282: x7+x60-y7_60 <=1 
C283: x7+x61-y7_61 <=1 
C284: x7+x64 <=1 
C285: x7+x65-y7_65 <=1 
C286: x8+x10-y8_10 <=1 
C287: x8+x14-y8_14 <=1 
C288: x8+x15-y8_15 <=1 
C289: x8+x16-y8_16 <=1 
C290: x8+x17 <=1 
C291: x8+x18-y8_18 <=1 
C292: x8+x19 <=1 
C293: x8+x22 <=1 
C294: x8+x24-y8_24 <=1 
C295: x8+x25-y8_25 <=1 
C296: x8+x28 <=1 
C297: x8+x29-y8_29 <=1 
C298: x8+x30-y8_30 <=1 
C299: x8+x31 <=1 
C300: x8+x34 <=1 
C301: x8+x35 <=1 
C302: x8+x36 <=1 
C303: x8+x38-y8_38 <=1 
C304: x8+x40 <=1 
C305: x8+x41 <=1 
C306: x8+x42-y8_42 <=1 
C307: x8+x46-y8_46 <=1 
C308: x8+x48 <=1 
C309: x8+x49-y8_49 <=1 
C310: x8+x50-y8_50 <=1 
C311: x8+x54-y8_54 <=1 
C312: x8+x55 <=1 
C313: x8+x57-y8_57 <=1 
C314: x8+x58-y8_58 <=1 
C315: x8+x59 <=1 
C316: x8+x60 <=1 
C317: x8+x61-y8_61 <=1 
C318: x8+x62-y8_62 <=1 
C319: x8+x63 <=1 
C320: x8+x64-y8_64 <=1 
C321: x8+x65 <=1 
C322: x9+x11-y9_11 <=1 
C323: x9+x12-y9_12 <=1 
C324: x9+x14-y9_14 <=1 
C325: x9+x15 <=1 
C326: x9+x16 <=1 
C327: x9+x18 <=1 
C328: x9+x19-y9_19 <=1 
C329: x9+x20 <=1 
C330: x9+x22-y9_22 <=1 
C331: x9+x23-y9_23 <=1 
C332: x9+x24-y9_24 <=1 
C333: x9+x25-y9_25 <=1 
C334: x9+x28 <=1 
C335: x9+x29-y9_29 <=1 
C336: x9+x32-y9_32 <=1 
C337: x9+x33-y9_33 <=1 
C338: x9+x35-y9_35 <=1 
C339: x9+x36 <=1 
C340: x9+x37-y9_37 <=1 
C341: x9+x39 <=1 
C342: x9+x40 <=1 
C343: x9+x42-y9_42 <=1 
C344: x9+x43-y9_43 <=1 
C345: x9+x44 <=1 
C346: x9+x47 <=1 
C347: x9+x48-y9_48 <=1 
C348: x9+x51 <=1 
C349: x9+x52-y9_52 <=1 
C350: x9+x54-y9_54 <=1 
C351: x9+x57-y9_57 <=1 
C352: x9+x59 <=1 
C353: x9+x61-y9_61 <=1 
C354: x9+x63 <=1 
C355: x9+x64-y9_64 <=1 
C356: x9+x65-y9_65 <=1 
C357: x10+x11 <=1 
C358: x10+x12 <=1 
C359: x10+x13 <=1 
C360: x10+x14-y10_14 <=1 
C361: x10+x15-y10_15 <=1 
C362: x10+x18-y10_18 <=1 
C363: x10+x19 <=1 
C364: x10+x21 <=1 
C365: x10+x22 <=1 
C366: x10+x23 <=1 
C367: x10+x24 <=1 
C368: x10+x26-y10_26 <=1 
C369: x10+x27-y10_27 <=1 
C370: x10+x28 <=1 
C371: x10+x29-y10_29 <=1 
C372: x10+x30-y10_30 <=1 
C373: x10+x32-y10_32 <=1 
C374: x10+x33-y10_33 <=1 
C375: x10+x35 <=1 
C376: x10+x38-y10_38 <=1 
C377: x10+x39-y10_39 <=1 
C378: x10+x41-y10_41 <=1 
C379: x10+x43 <=1 
C380: x10+x44 <=1 
C381: x10+x45 <=1 
C382: x10+x47 <=1 
C383: x10+x48 <=1 
C384: x10+x49 <=1 
C385: x10+x50 <=1 
C386: x10+x52 <=1 
C387: x10+x54 <=1 
C388: x10+x55 <=1 
C389: x10+x57 <=1 
C390: x10+x59 <=1 
C391: x10+x60-y10_60 <=1 
C392: x10+x62 <=1 
C393: x10+x63 <=1 
C394: x10+x64 <=1 
C395: x11+x15-y11_15 <=1 
C396: x11+x16 <=1 
C397: x11+x22-y11_22 <=1 
C398: x11+x24 <=1 
C399: x11+x25 <=1 
C400: x11+x26 <=1 
C401: x11+x27 <=1 
C402: x11+x28-y11_28 <=1 
C403: x11+x29-y11_29 <=1 
C404: x11+x31 <=1 
C405: x11+x32-y11_32 <=1 
C406: x11+x34-y11_34 <=1 
C407: x11+x35 <=1 
C408: x11+x37 <=1 
C409: x11+x39-y11_39 <=1 
C410: x11+x41-y11_41 <=1 
C411: x11+x42 <=1 
C412: x11+x43-y11_43 <=1 
C413: x11+x45 <=1 
C414: x11+x46-y11_46 <=1 
C415: x11+x47-y11_47 <=1 
C416: x11+x48 <=1 
C417: x11+x49-y11_49 <=1 
C418: x11+x50-y11_50 <=1 
C419: x11+x51-y11_51 <=1 
C420: x11+x53-y11_53 <=1 
C421: x11+x57 <=1 
C422: x11+x58 <=1 
C423: x11+x60 <=1 
C424: x11+x61-y11_61 <=1 
C425: x11+x63 <=1 
C426: x12+x15-y12_15 <=1 
C427: x12+x16 <=1 
C428: x12+x18-y12_18 <=1 
C429: x12+x19-y12_19 <=1 
C430: x12+x20-y12_20 <=1 
C431: x12+x21-y12_21 <=1 
C432: x12+x22-y12_22 <=1 
C433: x12+x24 <=1 
C434: x12+x28 <=1 
C435: x12+x30-y12_30 <=1 
C436: x12+x31 <=1 
C437: x12+x32-y12_32 <=1 
C438: x12+x35-y12_35 <=1 
C439: x12+x36 <=1 
C440: x12+x37-y12_37 <=1 
C441: x12+x38 <=1 
C442: x12+x39 <=1 
C443: x12+x40-y12_40 <=1 
C444: x12+x41 <=1 
C445: x12+x42-y12_42 <=1 
C446: x12+x43-y12_43 <=1 
C447: x12+x44 <=1 
C448: x12+x47 <=1 
C449: x12+x49 <=1 
C450: x12+x50-y12_50 <=1 
C451: x12+x52 <=1 
C452: x12+x54 <=1 
C453: x12+x55 <=1 
C454: x12+x57 <=1 
C455: x12+x60 <=1 
C456: x12+x61 <=1 
C457: x12+x62 <=1 
C458: x12+x63 <=1 
C459: x12+x65-y12_65 <=1 
C460: x13+x15 <=1 
C461: x13+x16-y13_16 <=1 
C462: x13+x17 <=1 
C463: x13+x20-y13_20 <=1 
C464: x13+x21 <=1 
C465: x13+x22-y13_22 <=1 
C466: x13+x23-y13_23 <=1 
C467: x13+x26 <=1 
C468: x13+x27-y13_27 <=1 
C469: x13+x28 <=1 
C470: x13+x29 <=1 
C471: x13+x30 <=1 
C472: x13+x31 <=1 
C473: x13+x32-y13_32 <=1 
C474: x13+x33-y13_33 <=1 
C475: x13+x35 <=1 
C476: x13+x36 <=1 
C477: x13+x37 <=1 
C478: x13+x38 <=1 
C479: x13+x40-y13_40 <=1 
C480: x13+x42-y13_42 <=1 
C481: x13+x43-y13_43 <=1 
C482: x13+x47-y13_47 <=1 
C483: x13+x49 <=1 
C484: x13+x51 <=1 
C485: x13+x53 <=1 
C486: x13+x57-y13_57 <=1 
C487: x13+x59-y13_59 <=1 
C488: x13+x60 <=1 
C489: x13+x62 <=1 
C490: x13+x64-y13_64 <=1 
C491: x13+x65-y13_65 <=1 
C492: x14+x16 <=1 
C493: x14+x17-y14_17 <=1 
C494: x14+x18 <=1 
C495: x14+x19 <=1 
C496: x14+x20 <=1 
C497: x14+x21-y14_21 <=1 
C498: x14+x23-y14_23 <=1 
C499: x14+x24-y14_24 <=1 
C500: x14+x28-y14_28 <=1 
C501: x14+x30-y14_30 <=1 
C502: x14+x34-y14_34 <=1 
C503: x14+x35 <=1 
C504: x14+x38 <=1 
C505: x14+x40-y14_40 <=1 
C506: x14+x41 <=1 
C507: x14+x42-y14_42 <=1 
C508: x14+x43-y14_43 <=1 
C509: x14+x44 <=1 
C510: x14+x47 <=1 
C511: x14+x49-y14_49 <=1 
C512: x14+x50-y14_50 <=1 
C513: x14+x52-y14_52 <=1 
C514: x14+x57-y14_57 <=1 
C515: x14+x58 <=1 
C516: x14+x59 <=1 
C517: x14+x62-y14_62 <=1 
C518: x14+x63-y14_63 <=1 
C519: x15+x16-y15_16 <=1 
C520: x15+x18 <=1 
C521: x15+x19-y15_19 <=1 
C522: x15+x20 <=1 
C523: x15+x22-y15_22 <=1 
C524: x15+x23-y15_23 <=1 
C525: x15+x25-y15_25 <=1 
C526: x15+x26 <=1 
C527: x15+x27 <=1 
C528: x15+x29 <=1 
C529: x15+x30-y15_30 <=1 
C530: x15+x32 <=1 
C531: x15+x34-y15_34 <=1 
C532: x15+x35 <=1 
C533: x15+x36-y15_36 <=1 
C534: x15+x37 <=1 
C535: x15+x38 <=1 
C536: x15+x41 <=1 
C537: x15+x42-y15_42 <=1 
C538: x15+x43-y15_43 <=1 
C539: x15+x44 <=1 
C540: x15+x47-y15_47 <=1 
C541: x15+x48-y15_48 <=1 
C542: x15+x50-y15_50 <=1 
C543: x15+x51-y15_51 <=1 
C544: x15+x52-y15_52 <=1 
C545: x15+x53-y15_53 <=1 
C546: x15+x55-y15_55 <=1 
C547: x15+x57-y15_57 <=1 
C548: x15+x58 <=1 
C549: x15+x61 <=1 
C550: x15+x62-y15_62 <=1 
C551: x15+x64-y15_64 <=1 
C552: x16+x18 <=1 
C553: x16+x19-y16_19 <=1 
C554: x16+x21-y16_21 <=1 
C555: x16+x23-y16_23 <=1 
C556: x16+x24 <=1 
C557: x16+x26-y16_26 <=1 
C558: x16+x29-y16_29 <=1 
C559: x16+x31-y16_31 <=1 
C560: x16+x32 <=1 
C561: x16+x33-y16_33 <=1 
C562: x16+x34-y16_34 <=1 
C563: x16+x35-y16_35 <=1 
C564: x16+x36-y16_36 <=1 
C565: x16+x38 <=1 
C566: x16+x39 <=1 
C567: x16+x40-y16_40 <=1 
C568: x16+x41 <=1 
C569: x16+x42 <=1 
C570: x16+x44 <=1 
C571: x16+x47-y16_47 <=1 
C572: x16+x48-y16_48 <=1 
C573: x16+x50 <=1 
C574: x16+x52-y16_52 <=1 
C575: x16+x53-y16_53 <=1 
C576: x16+x54-y16_54 <=1 
C577: x16+x56 <=1 
C578: x16+x58-y16_58 <=1 
C579: x16+x60-y16_60 <=1 
C580: x16+x62 <=1 
C581: x16+x63-y16_63 <=1 
C582: x16+x64-y16_64 <=1 
C583: x17+x19-y17_19 <=1 
C584: x17+x20 <=1 
C585: x17+x21 <=1 
C586: x17+x24-y17_24 <=1 
C587: x17+x27-y17_27 <=1 
C588: x17+x30 <=1 
C589: x17+x32 <=1 
C590: x17+x34 <=1 
C591: x17+x36-y17_36 <=1 
C592: x17+x38 <=1 
C593: x17+x42-y17_42 <=1 
C594: x17+x43 <=1 
C595: x17+x44 <=1 
C596: x17+x45-y17_45 <=1 
C597: x17+x48 <=1 
C598: x17+x53-y17_53 <=1 
C599: x17+x54 <=1 
C600: x17+x55-y17_55 <=1 
C601: x17+x57 <=1 
C602: x17+x58-y17_58 <=1 
C603: x17+x60-y17_60 <=1 
C604: x17+x61 <=1 
C605: x17+x62 <=1 
C606: x18+x19-y18_19 <=1 
C607: x18+x20-y18_20 <=1 
C608: x18+x21-y18_21 <=1 
C609: x18+x25-y18_25 <=1 
C610: x18+x26 <=1 
C611: x18+x28 <=1 
C612: x18+x33 <=1 
C613: x18+x36-y18_36 <=1 
C614: x18+x37 <=1 
C615: x18+x39-y18_39 <=1 
C616: x18+x40-y18_40 <=1 
C617: x18+x43 <=1 
C618: x18+x44-y18_44 <=1 
C619: x18+x45 <=1 
C620: x18+x50-y18_50 <=1 
C621: x18+x52-y18_52 <=1 
C622: x18+x54-y18_54 <=1 
C623: x18+x57 <=1 
C624: x18+x58 <=1 
C625: x18+x60 <=1 
C626: x18+x61 <=1 
C627: x18+x65-y18_65 <=1 
C628: x19+x24 <=1 
C629: x19+x28-y19_28 <=1 
C630: x19+x29 <=1 
C631: x19+x30 <=1 
C632: x19+x31-y19_31 <=1 
C633: x19+x33-y19_33 <=1 
C634: x19+x36 <=1 
C635: x19+x38-y19_38 <=1 
C636: x19+x39 <=1 
C637: x19+x41-y19_41 <=1 
C638: x19+x43 <=1 
C639: x19+x44-y19_44 <=1 
C640: x19+x45 <=1 
C641: x19+x46-y19_46 <=1 
C642: x19+x47-y19_47 <=1 
C643: x19+x48-y19_48 <=1 
C644: x19+x49-y19_49 <=1 
C645: x19+x50 <=1 
C646: x19+x51-y19_51 <=1 
C647: x19+x52 <=1 
C648: x19+x53-y19_53 <=1 
C649: x19+x54-y19_54 <=1 
C650: x19+x58 <=1 
C651: x19+x62-y19_62 <=1 
C652: x19+x64 <=1 
C653: x19+x65-y19_65 <=1 
C654: x20+x21-y20_21 <=1 
C655: x20+x22 <=1 
C656: x20+x23-y20_23 <=1 
C657: x20+x24 <=1 
C658: x20+x25-y20_25 <=1 
C659: x20+x28 <=1 
C660: x20+x30 <=1 
C661: x20+x31 <=1 
C662: x20+x35 <=1 
C663: x20+x36-y20_36 <=1 
C664: x20+x37-y20_37 <=1 
C665: x20+x38 <=1 
C666: x20+x40 <=1 
C667: x20+x41 <=1 
C668: x20+x43 <=1 
C669: x20+x44 <=1 
C670: x20+x47-y20_47 <=1 
C671: x20+x49 <=1 
C672: x20+x50-y20_50 <=1 
C673: x20+x51-y20_51 <=1 
C674: x20+x53-y20_53 <=1 
C675: x20+x56-y20_56 <=1 
C676: x20+x58-y20_58 <=1 
C677: x20+x59-y20_59 <=1 
C678: x20+x60 <=1 
C679: x20+x61-y20_61 <=1 
C680: x20+x62-y20_62 <=1 
C681: x20+x64 <=1 
C682: x20+x65 <=1 
C683: x21+x22-y21_22 <=1 
C684: x21+x24 <=1 
C685: x21+x26-y21_26 <=1 
C686: x21+x27 <=1 
C687: x21+x28-y21_28 <=1 
C688: x21+x29 <=1 
C689: x21+x31-y21_31 <=1 
C690: x21+x34-y21_34 <=1 
C691: x21+x35-y21_35 <=1 
C692: x21+x36 <=1 
C693: x21+x38 <=1 
C694: x21+x40-y21_40 <=1 
C695: x21+x41-y21_41 <=1 
C696: x21+x42-y21_42 <=1 
C697: x21+x43-y21_43 <=1 
C698: x21+x44-y21_44 <=1 
C699: x21+x45-y21_45 <=1 
C700: x21+x48 <=1 
C701: x21+x50-y21_50 <=1 
C702: x21+x51 <=1 
C703: x21+x52 <=1 
C704: x21+x56 <=1 
C705: x21+x58 <=1 
C706: x21+x59-y21_59 <=1 
C707: x21+x61 <=1 
C708: x21+x62-y21_62 <=1 
C709: x21+x63-y21_63 <=1 
C710: x21+x64 <=1 
C711: x21+x65 <=1 
C712: x22+x23 <=1 
C713: x22+x26 <=1 
C714: x22+x27 <=1 
C715: x22+x28 <=1 
C716: x22+x30 <=1 
C717: x22+x31-y22_31 <=1 
C718: x22+x32 <=1 
C719: x22+x36-y22_36 <=1 
C720: x22+x38-y22_38 <=1 
C721: x22+x40-y22_40 <=1 
C722: x22+x42-y22_42 <=1 
C723: x22+x43-y22_43 <=1 
C724: x22+x46 <=1 
C725: x22+x47-y22_47 <=1 
C726: x22+x48 <=1 
C727: x22+x49 <=1 
C728: x22+x50 <=1 
C729: x22+x51-y22_51 <=1 
C730: x22+x52 <=1 
C731: x22+x55-y22_55 <=1 
C732: x22+x59-y22_59 <=1 
C733: x22+x62-y22_62 <=1 
C734: x22+x63 <=1 
C735: x22+x64 <=1 
C736: x22+x65-y22_65 <=1 
C737: x23+x24-y23_24 <=1 
C738: x23+x25-y23_25 <=1 
C739: x23+x27-y23_27 <=1 
C740: x23+x29-y23_29 <=1 
C741: x23+x30-y23_30 <=1 
C742: x23+x31-y23_31 <=1 
C743: x23+x33 <=1 
C744: x23+x34-y23_34 <=1 
C745: x23+x37-y23_37 <=1 
C746: x23+x39 <=1 
C747: x23+x40 <=1 
C748: x23+x42-y23_42 <=1 
C749: x23+x46 <=1 
C750: x23+x47-y23_47 <=1 
C751: x23+x48-y23_48 <=1 
C752: x23+x50 <=1 
C753: x23+x51-y23_51 <=1 
C754: x23+x52 <=1 
C755: x23+x53-y23_53 <=1 
C756: x23+x54-y23_54 <=1 
C757: x23+x55 <=1 
C758: x23+x56-y23_56 <=1 
C759: x23+x59 <=1 
C760: x23+x60 <=1 
C761: x23+x61-y23_61 <=1 
C762: x23+x62-y23_62 <=1 
C763: x23+x63-y23_63 <=1 
C764: x23+x65-y23_65 <=1 
C765: x24+x25 <=1 
C766: x24+x29-y24_29 <=1 
C767: x24+x30 <=1 
C768: x24+x32-y24_32 <=1 
C769: x24+x33-y24_33 <=1 
C770: x24+x34-y24_34 <=1 
C771: x24+x35 <=1 
C772: x24+x38 <=1 
C773: x24+x40-y24_40 <=1 
C774: x24+x42-y24_42 <=1 
C775: x24+x43-y24_43 <=1 
C776: x24+x45-y24_45 <=1 
C777: x24+x49 <=1 
C778: x24+x50 <=1 
C779: x24+x51-y24_51 <=1 
C780: x24+x52-y24_52 <=1 
C781: x24+x54 <=1 
C782: x24+x55-y24_55 <=1 
C783: x24+x57 <=1 
C784: x24+x62-y24_62 <=1 
C785: x24+x64-y24_64 <=1 
C786: x24+x65-y24_65 <=1 
C787: x25+x26 <=1 
C788: x25+x28 <=1 
C789: x25+x29-y25_29 <=1 
C790: x25+x31-y25_31 <=1 
C791: x25+x33-y25_33 <=1 
C792: x25+x34 <=1 
C793: x25+x36-y25_36 <=1 
C794: x25+x37 <=1 
C795: x25+x38-y25_38 <=1 
C796: x25+x39-y25_39 <=1 
C797: x25+x43 <=1 
C798: x25+x44 <=1 
C799: x25+x45 <=1 
C800: x25+x46 <=1 
C801: x25+x47 <=1 
C802: x25+x48-y25_48 <=1 
C803: x25+x50 <=1 
C804: x25+x54-y25_54 <=1 
C805: x25+x55 <=1 
C806: x25+x58-y25_58 <=1 
C807: x25+x61 <=1 
C808: x25+x62 <=1 
C809: x25+x63 <=1 
C810: x26+x29-y26_29 <=1 
C811: x26+x32 <=1 
C812: x26+x34-y26_34 <=1 
C813: x26+x39 <=1 
C814: x26+x40 <=1 
C815: x26+x41-y26_41 <=1 
C816: x26+x44 <=1 
C817: x26+x47-y26_47 <=1 
C818: x26+x50-y26_50 <=1 
C819: x26+x53 <=1 
C820: x26+x55 <=1 
C821: x26+x58-y26_58 <=1 
C822: x26+x59 <=1 
C823: x26+x60-y26_60 <=1 
C824: x26+x61-y26_61 <=1 
C825: x26+x62-y26_62 <=1 
C826: x26+x63 <=1 
C827: x27+x28 <=1 
C828: x27+x30-y27_30 <=1 
C829: x27+x33 <=1 
C830: x27+x37 <=1 
C831: x27+x39 <=1 
C832: x27+x41 <=1 
C833: x27+x42 <=1 
C834: x27+x43-y27_43 <=1 
C835: x27+x44 <=1 
C836: x27+x46 <=1 
C837: x27+x49 <=1 
C838: x27+x50-y27_50 <=1 
C839: x27+x51 <=1 
C840: x27+x52 <=1 
C841: x27+x53 <=1 
C842: x27+x54-y27_54 <=1 
C843: x27+x55 <=1 
C844: x27+x57 <=1 
C845: x27+x59-y27_59 <=1 
C846: x27+x60-y27_60 <=1 
C847: x27+x61-y27_61 <=1 
C848: x27+x62-y27_62 <=1 
C849: x27+x65 <=1 
C850: x28+x29 <=1 
C851: x28+x30-y28_30 <=1 
C852: x28+x31 <=1 
C853: x28+x33-y28_33 <=1 
C854: x28+x34-y28_34 <=1 
C855: x28+x35 <=1 
C856: x28+x36-y28_36 <=1 
C857: x28+x37 <=1 
C858: x28+x39 <=1 
C859: x28+x42 <=1 
C860: x28+x43 <=1 
C861: x28+x44-y28_44 <=1 
C862: x28+x46-y28_46 <=1 
C863: x28+x48-y28_48 <=1 
C864: x28+x51 <=1 
C865: x28+x53 <=1 
C866: x28+x54-y28_54 <=1 
C867: x28+x55-y28_55 <=1 
C868: x28+x56 <=1 
C869: x28+x58 <=1 
C870: x28+x59-y28_59 <=1 
C871: x28+x60 <=1 
C872: x28+x62-y28_62 <=1 
C873: x28+x63-y28_63 <=1 
C874: x28+x64 <=1 
C875: x28+x65 <=1 
C876: x29+x30-y29_30 <=1 
C877: x29+x31-y29_31 <=1 
C878: x29+x32 <=1 
C879: x29+x34-y29_34 <=1 
C880: x29+x37-y29_37 <=1 
C881: x29+x39-y29_39 <=1 
C882: x29+x40 <=1 
C883: x29+x41-y29_41 <=1 
C884: x29+x43-y29_43 <=1 
C885: x29+x44 <=1 
C886: x29+x45-y29_45 <=1 
C887: x29+x47 <=1 
C888: x29+x49-y29_49 <=1 
C889: x29+x50-y29_50 <=1 
C890: x29+x51-y29_51 <=1 
C891: x29+x55-y29_55 <=1 
C892: x29+x56-y29_56 <=1 
C893: x29+x57 <=1 
C894: x29+x58 <=1 
C895: x29+x59-y29_59 <=1 
C896: x29+x60-y29_60 <=1 
C897: x29+x62-y29_62 <=1 
C898: x29+x63 <=1 
C899: x29+x64 <=1 
C900: x29+x65 <=1 
C901: x30+x31-y30_31 <=1 
C902: x30+x34-y30_34 <=1 
C903: x30+x37 <=1 
C904: x30+x38-y30_38 <=1 
C905: x30+x39-y30_39 <=1 
C906: x30+x41-y30_41 <=1 
C907: x30+x42-y30_42 <=1 
C908: x30+x44 <=1 
C909: x30+x47 <=1 
C910: x30+x48 <=1 
C911: x30+x49-y30_49 <=1 
C912: x30+x50-y30_50 <=1 
C913: x30+x51 <=1 
C914: x30+x52 <=1 
C915: x30+x54-y30_54 <=1 
C916: x30+x55-y30_55 <=1 
C917: x30+x56 <=1 
C918: x30+x57-y30_57 <=1 
C919: x30+x58 <=1 
C920: x30+x59 <=1 
C921: x30+x62-y30_62 <=1 
C922: x30+x64-y30_64 <=1 
C923: x30+x65 <=1 
C924: x31+x34 <=1 
C925: x31+x35 <=1 
C926: x31+x36-y31_36 <=1 
C927: x31+x38-y31_38 <=1 
C928: x31+x40 <=1 
C929: x31+x41-y31_41 <=1 
C930: x31+x44 <=1 
C931: x31+x45 <=1 
C932: x31+x50-y31_50 <=1 
C933: x31+x51 <=1 
C934: x31+x54-y31_54 <=1 
C935: x31+x58-y31_58 <=1 
C936: x31+x59-y31_59 <=1 
C937: x31+x61-y31_61 <=1 
C938: x31+x62-y31_62 <=1 
C939: x31+x63-y31_63 <=1 
C940: x31+x64 <=1 
C941: x32+x33-y32_33 <=1 
C942: x32+x35-y32_35 <=1 
C943: x32+x36-y32_36 <=1 
C944: x32+x37-y32_37 <=1 
C945: x32+x38-y32_38 <=1 
C946: x32+x39 <=1 
C947: x32+x40 <=1 
C948: x32+x41 <=1 
C949: x32+x43 <=1 
C950: x32+x44 <=1 
C951: x32+x45-y32_45 <=1 
C952: x32+x47 <=1 
C953: x32+x49-y32_49 <=1 
C954: x32+x50 <=1 
C955: x32+x52-y32_52 <=1 
C956: x32+x53-y32_53 <=1 
C957: x32+x54-y32_54 <=1 
C958: x32+x55 <=1 
C959: x32+x56-y32_56 <=1 
C960: x32+x57 <=1 
C961: x32+x59 <=1 
C962: x32+x62 <=1 
C963: x32+x63-y32_63 <=1 
C964: x32+x64 <=1 
C965: x32+x65-y32_65 <=1 
C966: x33+x36 <=1 
C967: x33+x37-y33_37 <=1 
C968: x33+x41 <=1 
C969: x33+x43 <=1 
C970: x33+x44-y33_44 <=1 
C971: x33+x45 <=1 
C972: x33+x51-y33_51 <=1 
C973: x33+x53 <=1 
C974: x33+x56 <=1 
C975: x33+x57 <=1 
C976: x33+x61 <=1 
C977: x33+x62 <=1 
C978: x33+x63-y33_63 <=1 
C979: x33+x64 <=1 
C980: x34+x36 <=1 
C981: x34+x37-y34_37 <=1 
C982: x34+x38 <=1 
C983: x34+x39-y34_39 <=1 
C984: x34+x40 <=1 
C985: x34+x42 <=1 
C986: x34+x46 <=1 
C987: x34+x50-y34_50 <=1 
C988: x34+x52 <=1 
C989: x34+x53-y34_53 <=1 
C990: x34+x54 <=1 
C991: x34+x55 <=1 
C992: x34+x56 <=1 
C993: x34+x59-y34_59 <=1 
C994: x34+x60-y34_60 <=1 
C995: x34+x64-y34_64 <=1 
C996: x34+x65-y34_65 <=1 
C997: x35+x36 <=1 
C998: x35+x39 <=1 
C999: x35+x40-y35_40 <=1 
C1000: x35+x42 <=1 
C1001: x35+x44 <=1 
C1002: x35+x45 <=1 
C1003: x35+x46 <=1 
C1004: x35+x48-y35_48 <=1 
C1005: x35+x50 <=1 
C1006: x35+x51-y35_51 <=1 
C1007: x35+x52 <=1 
C1008: x35+x53-y35_53 <=1 
C1009: x35+x55-y35_55 <=1 
C1010: x35+x56 <=1 
C1011: x35+x57-y35_57 <=1 
C1012: x35+x59-y35_59 <=1 
C1013: x35+x62 <=1 
C1014: x35+x64 <=1 
C1015: x36+x37 <=1 
C1016: x36+x38 <=1 
C1017: x36+x39-y36_39 <=1 
C1018: x36+x40-y36_40 <=1 
C1019: x36+x41-y36_41 <=1 
C1020: x36+x43 <=1 
C1021: x36+x44 <=1 
C1022: x36+x45 <=1 
C1023: x36+x46 <=1 
C1024: x36+x48 <=1 
C1025: x36+x49 <=1 
C1026: x36+x50-y36_50 <=1 
C1027: x36+x52 <=1 
C1028: x36+x53 <=1 
C1029: x36+x55 <=1 
C1030: x36+x56 <=1 
C1031: x36+x58-y36_58 <=1 
C1032: x36+x59 <=1 
C1033: x36+x64 <=1 
C1034: x36+x65 <=1 
C1035: x37+x38-y37_38 <=1 
C1036: x37+x39 <=1 
C1037: x37+x40 <=1 
C1038: x37+x41-y37_41 <=1 
C1039: x37+x42 <=1 
C1040: x37+x44 <=1 
C1041: x37+x46-y37_46 <=1 
C1042: x37+x47-y37_47 <=1 
C1043: x37+x48 <=1 
C1044: x37+x49 <=1 
C1045: x37+x50 <=1 
C1046: x37+x51 <=1 
C1047: x37+x53 <=1 
C1048: x37+x54-y37_54 <=1 
C1049: x37+x57 <=1 
C1050: x37+x59-y37_59 <=1 
C1051: x37+x60 <=1 
C1052: x37+x61-y37_61 <=1 
C1053: x37+x63 <=1 
C1054: x37+x64 <=1 
C1055: x37+x65-y37_65 <=1 
C1056: x38+x40-y38_40 <=1 
C1057: x38+x41 <=1 
C1058: x38+x46-y38_46 <=1 
C1059: x38+x49 <=1 
C1060: x38+x50 <=1 
C1061: x38+x52 <=1 
C1062: x38+x55 <=1 
C1063: x38+x58-y38_58 <=1 
C1064: x38+x61 <=1 
C1065: x38+x63 <=1 
C1066: x39+x40 <=1 
C1067: x39+x42 <=1 
C1068: x39+x43-y39_43 <=1 
C1069: x39+x46 <=1 
C1070: x39+x47 <=1 
C1071: x39+x48 <=1 
C1072: x39+x49-y39_49 <=1 
C1073: x39+x50-y39_50 <=1 
C1074: x39+x51-y39_51 <=1 
C1075: x39+x52-y39_52 <=1 
C1076: x39+x55 <=1 
C1077: x39+x56-y39_56 <=1 
C1078: x39+x57 <=1 
C1079: x39+x59 <=1 
C1080: x39+x62-y39_62 <=1 
C1081: x39+x65 <=1 
C1082: x40+x41-y40_41 <=1 
C1083: x40+x43-y40_43 <=1 
C1084: x40+x47 <=1 
C1085: x40+x48-y40_48 <=1 
C1086: x40+x50 <=1 
C1087: x40+x51-y40_51 <=1 
C1088: x40+x52-y40_52 <=1 
C1089: x40+x53-y40_53 <=1 
C1090: x40+x55 <=1 
C1091: x40+x56-y40_56 <=1 
C1092: x40+x57 <=1 
C1093: x40+x58-y40_58 <=1 
C1094: x40+x59-y40_59 <=1 
C1095: x40+x60-y40_60 <=1 
C1096: x40+x62-y40_62 <=1 
C1097: x40+x63 <=1 
C1098: x40+x64-y40_64 <=1 
C1099: x41+x44 <=1 
C1100: x41+x46 <=1 
C1101: x41+x47 <=1 
C1102: x41+x48-y41_48 <=1 
C1103: x41+x49 <=1 
C1104: x41+x50 <=1 
C1105: x41+x51 <=1 
C1106: x41+x53-y41_53 <=1 
C1107: x41+x56 <=1 
C1108: x41+x57 <=1 
C1109: x41+x58-y41_58 <=1 
C1110: x41+x59-y41_59 <=1 
C1111: x41+x60-y41_60 <=1 
C1112: x41+x61-y41_61 <=1 
C1113: x41+x62-y41_62 <=1 
C1114: x41+x63-y41_63 <=1 
C1115: x41+x64 <=1 
C1116: x42+x43 <=1 
C1117: x42+x46-y42_46 <=1 
C1118: x42+x47 <=1 
C1119: x42+x49-y42_49 <=1 
C1120: x42+x50 <=1 
C1121: x42+x51 <=1 
C1122: x42+x53 <=1 
C1123: x42+x60 <=1 
C1124: x42+x61-y42_61 <=1 
C1125: x42+x62 <=1 
C1126: x42+x63-y42_63 <=1 
C1127: x42+x64 <=1 
C1128: x42+x65 <=1 
C1129: x43+x44-y43_44 <=1 
C1130: x43+x45-y43_45 <=1 
C1131: x43+x46 <=1 
C1132: x43+x48-y43_48 <=1 
C1133: x43+x52-y43_52 <=1 
C1134: x43+x53 <=1 
C1135: x43+x54 <=1 
C1136: x43+x55-y43_55 <=1 
C1137: x43+x56 <=1 
C1138: x43+x59 <=1 
C1139: x43+x60-y43_60 <=1 
C1140: x43+x61 <=1 
C1141: x43+x62 <=1 
C1142: x43+x64-y43_64 <=1 
C1143: x43+x65 <=1 
C1144: x44+x45 <=1 
C1145: x44+x46-y44_46 <=1 
C1146: x44+x49 <=1 
C1147: x44+x51-y44_51 <=1 
C1148: x44+x52-y44_52 <=1 
C1149: x44+x53-y44_53 <=1 
C1150: x44+x55-y44_55 <=1 
C1151: x44+x57-y44_57 <=1 
C1152: x44+x59 <=1 
C1153: x44+x60-y44_60 <=1 
C1154: x44+x63 <=1 
C1155: x44+x64 <=1 
C1156: x44+x65 <=1 
C1157: x45+x46-y45_46 <=1 
C1158: x45+x47 <=1 
C1159: x45+x48-y45_48 <=1 
C1160: x45+x51-y45_51 <=1 
C1161: x45+x53-y45_53 <=1 
C1162: x45+x54-y45_54 <=1 
C1163: x45+x56 <=1 
C1164: x45+x60 <=1 
C1165: x45+x61 <=1 
C1166: x45+x62 <=1 
C1167: x45+x63-y45_63 <=1 
C1168: x45+x65-y45_65 <=1 
C1169: x46+x49-y46_49 <=1 
C1170: x46+x51 <=1 
C1171: x46+x52-y46_52 <=1 
C1172: x46+x53 <=1 
C1173: x46+x54-y46_54 <=1 
C1174: x46+x56-y46_56 <=1 
C1175: x46+x59-y46_59 <=1 
C1176: x46+x60-y46_60 <=1 
C1177: x46+x61-y46_61 <=1 
C1178: x46+x62-y46_62 <=1 
C1179: x46+x63 <=1 
C1180: x46+x65 <=1 
C1181: x47+x50-y47_50 <=1 
C1182: x47+x51 <=1 
C1183: x47+x53-y47_53 <=1 
C1184: x47+x55-y47_55 <=1 
C1185: x47+x57-y47_57 <=1 
C1186: x47+x61 <=1 
C1187: x47+x63 <=1 
C1188: x47+x64 <=1 
C1189: x47+x65 <=1 
C1190: x48+x49 <=1 
C1191: x48+x50-y48_50 <=1 
C1192: x48+x54-y48_54 <=1 
C1193: x48+x55 <=1 
C1194: x48+x56-y48_56 <=1 
C1195: x48+x57-y48_57 <=1 
C1196: x48+x59-y48_59 <=1 
C1197: x48+x60-y48_60 <=1 
C1198: x48+x61-y48_61 <=1 
C1199: x48+x64-y48_64 <=1 
C1200: x48+x65 <=1 
C1201: x49+x53 <=1 
C1202: x49+x55-y49_55 <=1 
C1203: x49+x58-y49_58 <=1 
C1204: x49+x59 <=1 
C1205: x49+x60 <=1 
C1206: x49+x65-y49_65 <=1 
C1207: x50+x51-y50_51 <=1 
C1208: x50+x54-y50_54 <=1 
C1209: x50+x57 <=1 
C1210: x50+x59 <=1 
C1211: x50+x61 <=1 
C1212: x50+x62-y50_62 <=1 
C1213: x50+x63 <=1 
C1214: x51+x52-y51_52 <=1 
C1215: x51+x53 <=1 
C1216: x51+x59-y51_59 <=1 
C1217: x51+x63 <=1 
C1218: x51+x65-y51_65 <=1 
C1219: x52+x54-y52_54 <=1 
C1220: x52+x57 <=1 
C1221: x52+x58 <=1 
C1222: x52+x59-y52_59 <=1 
C1223: x52+x60-y52_60 <=1 
C1224: x52+x61-y52_61 <=1 
C1225: x52+x63-y52_63 <=1 
C1226: x52+x64 <=1 
C1227: x52+x65-y52_65 <=1 
C1228: x53+x56-y53_56 <=1 
C1229: x53+x58 <=1 
C1230: x53+x59 <=1 
C1231: x53+x60-y53_60 <=1 
C1232: x53+x62 <=1 
C1233: x53+x63 <=1 
C1234: x53+x65 <=1 
C1235: x54+x55-y54_55 <=1 
C1236: x54+x56 <=1 
C1237: x54+x57 <=1 
C1238: x54+x59-y54_59 <=1 
C1239: x54+x63-y54_63 <=1 
C1240: x55+x56-y55_56 <=1 
C1241: x55+x58-y55_58 <=1 
C1242: x55+x59-y55_59 <=1 
C1243: x55+x62-y55_62 <=1 
C1244: x55+x63 <=1 
C1245: x55+x64-y55_64 <=1 
C1246: x55+x65 <=1 
C1247: x56+x57-y56_57 <=1 
C1248: x56+x59 <=1 
C1249: x56+x61-y56_61 <=1 
C1250: x56+x62 <=1 
C1251: x56+x63-y56_63 <=1 
C1252: x57+x58-y57_58 <=1 
C1253: x57+x60 <=1 
C1254: x57+x61 <=1 
C1255: x57+x63-y57_63 <=1 
C1256: x57+x64 <=1 
C1257: x57+x65 <=1 
C1258: x58+x59-y58_59 <=1 
C1259: x58+x60 <=1 
C1260: x58+x61-y58_61 <=1 
C1261: x58+x62 <=1 
C1262: x58+x63 <=1 
C1263: x58+x64 <=1 
C1264: x58+x65-y58_65 <=1 
C1265: x59+x60-y59_60 <=1 
C1266: x59+x61-y59_61 <=1 
C1267: x59+x62 <=1 
C1268: x59+x63-y59_63 <=1 
C1269: x59+x64-y59_64 <=1 
C1270: x59+x65-y59_65 <=1 
C1271: x60+x61 <=1 
C1272: x60+x64 <=1 
C1273: x60+x65-y60_65 <=1 
C1274: x61+x62-y61_62 <=1 
C1275: x61+x63 <=1 
C1276: x61+x64 <=1 
C1277: x61+x65-y61_65 <=1 
C1278: x62+x64-y62_64 <=1 
C1279: x62+x65-y62_65 <=1 
C1280: x63+x64-y63_64 <=1 

binary
x0
x1
x2
x3
x4
x5
x6
x7
x8
x9
x10
x11
x12
x13
x14
x15
x16
x17
x18
x19
x20
x21
x22
x23
x24
x25
x26
x27
x28
x29
x30
x31
x32
x33
x34
x35
x36
x37
x38
x39
x40
x41
x42
x43
x44
x45
x46
x47
x48
x49
x50
x51
x52
x53
x54
x55
x56
x57
x58
x59
x60
x61
x62
x63
x64
x65
