problem_generation/data/GISP/train/er_n=66_m=1280_p=0.60_SET2_setparam=100.00_alpha=0.50_0.sol
objective value:                                 1266
x6                                                  1 	(obj:100)
x11                                                 1 	(obj:100)
x14                                                 1 	(obj:100)
x15                                                 1 	(obj:100)
x21                                                 1 	(obj:100)
x28                                                 1 	(obj:100)
x30                                                 1 	(obj:100)
x33                                                 1 	(obj:100)
x46                                                 1 	(obj:100)
x49                                                 1 	(obj:100)
x50                                                 1 	(obj:100)
x54                                                 1 	(obj:100)
x55                                                 1 	(obj:100)
y15_30                                              1 	(obj:-1)
y21_50                                              1 	(obj:-1)
y14_28                                              1 	(obj:-1)
y6_15                                               1 	(obj:-1)
y54_55                                              1 	(obj:-1)
y6_46                                               1 	(obj:-1)
y28_33                                              1 	(obj:-1)
y30_55                                              1 	(obj:-1)
y49_55                                              1 	(obj:-1)
y30_50                                              1 	(obj:-1)
y11_46                                              1 	(obj:-1)
y46_54                                              1 	(obj:-1)
y30_54                                              1 	(obj:-1)
y11_50                                              1 	(obj:-1)
y46_49                                              1 	(obj:-1)
y30_49                                              1 	(obj:-1)
y11_49                                              1 	(obj:-1)
y14_50                                              1 	(obj:-1)
y14_49                                              1 	(obj:-1)
y6_50                                               1 	(obj:-1)
y28_46                                              1 	(obj:-1)
y28_55                                              1 	(obj:-1)
y14_21                                              1 	(obj:-1)
y14_30                                              1 	(obj:-1)
y6_49                                               1 	(obj:-1)
y28_54                                              1 	(obj:-1)
y6_30                                               1 	(obj:-1)
y21_28                                              1 	(obj:-1)
y28_30                                              1 	(obj:-1)
y50_54                                              1 	(obj:-1)
y15_55                                              1 	(obj:-1)
y15_50                                              1 	(obj:-1)
y11_15                                              1 	(obj:-1)
y11_28                                              1 	(obj:-1)
